
Gurobi 13.0.1 (win64) logging started Fri Apr 10 01:54:39 2026

Set parameter LogFile to value "C:\Users\jiho\code\cloud_vmp_optimization\experiments\2604-chance-2sp-toy\results\runs\chance_2sp_toy_24vm_ratio_batch_heavy_od5_sp5_bj14_sc10_cap8_avg20_lam000\solver.log"
Set parameter Threads to value 8
Gurobi Optimizer version 13.0.1 build v13.0.1rc0 (win64 - Windows 11+.0 (26200.2))

CPU model: 13th Gen Intel(R) Core(TM) i9-13900K, instruction set [SSE2|AVX|AVX2]
Thread count: 24 physical cores, 32 logical processors, using up to 8 threads

Non-default parameters:
TimeLimit  7200
MIPGap  0.001
Threads  8

Optimize a model with 71793 rows, 59709 columns and 712516 nonzeros (Min)
Model fingerprint: 0x0728a97f
Model has 6 linear objective coefficients
Variable types: 1440 continuous, 58269 integer (58269 binary)
Coefficient statistics:
  Matrix range     [2e-02, 3e+01]
  Objective range  [1e+00, 1e+00]
  Bounds range     [1e+00, 1e+00]
  RHS range        [1e-01, 2e+01]

Presolve removed 5013 rows and 3189 columns
Presolve time: 4.39s
Presolved: 66780 rows, 56520 columns, 700912 nonzeros
Variable types: 0 continuous, 56520 integer (56520 binary)
Found heuristic solution: objective 6.0000000
Found heuristic solution: objective 5.0000000
Deterministic concurrent LP optimizer: primal simplex, dual simplex, and barrier
Showing barrier log only...

Root barrier log...

Ordering time: 2.71s

Barrier statistics:
 Dense cols : 30
 AA' NZ     : 1.245e+06
 Factor NZ  : 3.398e+06 (roughly 80 MB of memory)
 Factor Ops : 2.539e+09 (less than 1 second per iteration)
 Threads    : 6

                  Objective                Residual
Iter       Primal          Dual         Primal    Dual     Compl     Time
   0   3.71599248e+01 -4.52292413e+00  9.02e+02 1.77e-04  2.93e-01     8s
   1   3.75416465e+01 -4.29036215e+02  3.84e+02 1.53e-02  7.62e-02     8s
   2   3.39731239e+00 -4.04855262e+02  5.21e+01 5.95e-03  1.23e-02     8s
   3   2.37228489e+00 -1.59836859e+02  2.97e+00 8.05e-04  1.40e-03     8s
   4   2.21261845e+00 -2.00847317e+01  2.01e-02 2.52e-05  1.26e-04     8s
   5   1.50108868e+00 -3.78135511e+00  8.57e-03 5.49e-06  2.96e-05     9s
   6   1.31393804e+00 -3.67820551e+00  6.44e-03 5.39e-06  2.80e-05     9s
   7   1.18871515e+00 -5.64876806e-01  4.71e-03 1.64e-06  9.81e-06     9s
   8   1.05312222e+00  4.12710368e-02  2.86e-03 1.03e-06  5.65e-06     9s
   9   1.01000955e+00  1.98526683e-01  2.00e-03 2.05e-06  4.53e-06     9s
  10   1.04601592e+00  7.60166763e-01  1.22e-04 2.29e-06  1.59e-06     9s
  11   1.00102632e+00  8.31728055e-01  2.04e-06 3.08e-06  9.44e-07     9s
  12   1.00005519e+00  9.99913880e-01  2.02e-09 1.02e-07  7.87e-10     9s
  13   1.00000001e+00  9.99996908e-01  4.61e-13 5.05e-08  1.74e-11     9s
  14   1.00000000e+00  1.00000000e+00  3.98e-13 1.70e-11  8.12e-16    10s

Barrier solved model in 14 iterations and 9.54 seconds (9.41 work units)
Optimal objective 1.00000000e+00


Root crossover log...

     199 DPushes remaining with DInf 0.0000000e+00                10s
       0 DPushes remaining with DInf 0.0000000e+00                10s

   54942 PPushes remaining with PInf 0.0000000e+00                10s
   43909 PPushes remaining with PInf 0.0000000e+00                10s
    7256 PPushes remaining with PInf 0.0000000e+00                15s
       0 PPushes remaining with PInf 0.0000000e+00                16s

  Push phase complete: Pinf 0.0000000e+00, Dinf 0.0000000e+00     16s


Root simplex log...

Iteration    Objective       Primal Inf.    Dual Inf.      Time
   55089    1.0000000e+00   0.000000e+00   0.000000e+00     16s
Crossover time: 6.85 seconds (7.15 work units)
Concurrent spin time: 3.63s (can be avoided by choosing Method=3)

Solved with barrier

Root relaxation: objective 1.000000e+00, 55089 iterations, 15.35 seconds (13.18 work units)

    Nodes    |    Current Node    |     Objective Bounds      |     Work
 Expl Unexpl |  Obj  Depth IntInf | Incumbent    BestBd   Gap | It/Node Time

     0     0    1.00000    0 9944    5.00000    1.00000  80.0%     -  104s
     0     0          -    0         5.00000    1.00000  80.0%     - 7200s

Explored 1 nodes (1202106 simplex iterations) in 7200.12 seconds (5013.71 work units)
Thread count was 8 (of 32 available processors)

Solution count 2: 5 6 

Time limit reached
Best objective 5.000000000000e+00, best bound 1.000000000000e+00, gap 80.0000%
